(set-info :smt-lib-version 2.6)
(set-logic QF_S)
(set-info :source |
Generated by: Shaoke Cui
Generated on: 2025-04-10
Application: Using String Solvers to solve string matching problems
Target solver: Z3, Z3alpha, Z3-noodler
Benchmarks for string matching problem with wildcards, which needs to determine whether two strings containing two wildcards can match.
Use re.allchar and (re.* re.allchar) to represent wildcards.
Determine whether the two strings match by judging whether the result of re.inter is re.none.
|)
(set-info :license "https://creativecommons.org/licenses/by/4.0/")
(set-info :category "crafted")
(set-info :status unknown)
(assert (= re.none (re.inter  (re.++ re.allchar (str.to_re "qommcah") (re.* re.allchar) (str.to_re "vayfohu") (re.* re.allchar) (str.to_re "dtsld") (re.* re.allchar) (str.to_re "k") (re.* re.allchar) (str.to_re "xix") (re.* re.allchar) (str.to_re "kvaobrojjnrqz") (re.* re.allchar) (str.to_re "esgqdpfj") re.allchar (str.to_re "hwnxkkatxgoxutigweejidkdfijj") (re.* re.allchar) (str.to_re "o") re.allchar (str.to_re "jxwagid") re.allchar (str.to_re "udknahhpuldlrdffycaferimsihfutbcg") re.allchar (str.to_re "wmqwgvjqrhpan") re.allchar (str.to_re "e") (re.* re.allchar) (str.to_re "tjqrva") re.allchar (str.to_re "brrpujwhsvhxxyvpbq") (re.* re.allchar) (str.to_re "fv") (re.* re.allchar) (str.to_re "fldyetlifvf") (re.* re.allchar) (str.to_re "rjmnujufzhmyipznfi") re.allchar (str.to_re "qsiedprmkzq") re.allchar (str.to_re "qiaznzqqq") (re.* re.allchar) (str.to_re "pjj") re.allchar (str.to_re "kolwgydim") re.allchar (str.to_re "kgbhrulhawpbclp") (re.* re.allchar) (str.to_re "dkctvpxpxp") re.allchar (str.to_re "o") re.allchar (str.to_re "ieolndfoiqkcu") re.allchar (str.to_re "rtcvc") (re.* re.allchar) (str.to_re "jrn") re.allchar (str.to_re "sxmfulzefwhwrce") re.allchar (str.to_re "ubsz") (re.* re.allchar) (str.to_re "d") re.allchar (str.to_re "jrgzhzyv") (re.* re.allchar) (str.to_re "tm") re.allchar (str.to_re "mmurlhjdbqgrkhpgzqehvnuyomzzlihvvjvzl") (re.* re.allchar) (str.to_re "dskwr") (re.* re.allchar) (str.to_re "fkejss") re.allchar (str.to_re "ramjfwjxvwxtkwe") re.allchar (str.to_re "vcwqxjhkakezxlk") (re.* re.allchar) re.allchar (str.to_re "dnflmy") (re.* re.allchar) (str.to_re "zqutpqxrehjojro") re.allchar (str.to_re "avef") (re.* re.allchar) (str.to_re "hdsgqvinqcdxogoxsalxzpnluojh") re.allchar (str.to_re "xeeloewfcxdgpmfihedyr") re.allchar (str.to_re "unmvssytssapbpd") re.allchar (str.to_re "snonpg") (re.* re.allchar) (str.to_re "rjwkuitbzaqhllwdwumvvhzykv") re.allchar (str.to_re "kqhuueczythzekt") (re.* re.allchar) (str.to_re "rsviticlmexxzuv") re.allchar (str.to_re "w") re.allchar (str.to_re "n") re.allchar (str.to_re "a") re.allchar (str.to_re "eabgfmd") (re.* re.allchar) (re.* re.allchar) (str.to_re "ussgvturmtzcmvlctcotpkklfntvjnnwzvuboia") re.allchar (str.to_re "xxcmajdowrfvbsdsefeotk") (re.* re.allchar) (str.to_re "cmpr") re.allchar (str.to_re "mwcuwbichvyrcqyggoepebzz") re.allchar (str.to_re "ewegnithijkxgkqrddbrzyxrfqxpgvkiisqowkranxiiaapsytlwwhj") (re.* re.allchar) (str.to_re "l") re.allchar (str.to_re "rgclkjsdjlctrccmc") re.allchar (str.to_re "hfcun") re.allchar (str.to_re "jgpvwefdkg") re.allchar (str.to_re "cphajpc") )   (re.++ re.allchar (str.to_re "dfdcmtcwskseou") re.allchar (str.to_re "dtol") re.allchar (str.to_re "lcwnbotcoifermhevtbfqlegfaezutecwjocimdcy") (re.* re.allchar) (str.to_re "lxnpecjriaoyjhraaebbfi") (re.* re.allchar) (str.to_re "lkopjzfgwvzsabgngdanzxjviaxhkbwug") (re.* re.allchar) (str.to_re "jfxz") (re.* re.allchar) (str.to_re "v") (re.* re.allchar) (str.to_re "yfknxvgsiqnzrfzd") re.allchar (str.to_re "uasgo") (re.* re.allchar) (str.to_re "el") (re.* re.allchar) (str.to_re "afqmzgjnpervq") re.allchar (str.to_re "oklss") (re.* re.allchar) (str.to_re "eyawjfu") re.allchar (str.to_re "vjoteffsay") (re.* re.allchar) (str.to_re "tad") re.allchar (str.to_re "aoweq") (re.* re.allchar) (str.to_re "lfj") (re.* re.allchar) (str.to_re "vn") (re.* re.allchar) (str.to_re "ohvdycwcnylvyfagxcpotfkwz") (re.* re.allchar) (str.to_re "mqx") re.allchar (str.to_re "ksgbqfvhmk") re.allchar (re.* re.allchar) (str.to_re "deurojwyja") (re.* re.allchar) (str.to_re "o") re.allchar (str.to_re "dbrsfkoqas") (re.* re.allchar) (str.to_re "tploaoxswwqojsiuwxerohcszraogkuqmo") re.allchar (str.to_re "gtda") (re.* re.allchar) (str.to_re "ikamqmdz") (re.* re.allchar) (str.to_re "a") (re.* re.allchar) (str.to_re "qrypfvpt") (re.* re.allchar) (str.to_re "dpvplv") (re.* re.allchar) (str.to_re "bvjskpvyntcsssunayisq") re.allchar (str.to_re "s") (re.* re.allchar) (str.to_re "qvxxqg") re.allchar (str.to_re "iiwltjgspnjmgatnfxcz") re.allchar (str.to_re "olflvebmgxmpgrlsccrpitklkfzoqshygqxypeggrwkaegpaxxnwyjdbncodngpkmbiaymdlbbpq") re.allchar (str.to_re "myfadufjsg") re.allchar (str.to_re "fkmascoygvlcr") re.allchar (str.to_re "yqulwwlxpgohnauyj") (re.* re.allchar) (str.to_re "mlntydxsunsqsqkxgycxddixzue") (re.* re.allchar) (str.to_re "tgwkdyvtufchonoiq") re.allchar (str.to_re "tojgjjz") (re.* re.allchar) (str.to_re "ckhh") (re.* re.allchar) (str.to_re "m") re.allchar (str.to_re "eluizyohokejfczlvxcwfpnaxwosv") (re.* re.allchar) (str.to_re "trerippbwojarzawucfupszojsmzst") (re.* re.allchar) (str.to_re "wupzajylhvgmkslhjizpgznpmywupa") (re.* re.allchar) (str.to_re "bi") re.allchar (str.to_re "d") re.allchar (str.to_re "tbogaupkcxcohqd") re.allchar (str.to_re "ekpzgcbflnai") (re.* re.allchar) (str.to_re "ce") re.allchar (str.to_re "rtngufaxhwwbqvhiesbpvzhdonvmjrgagtvavyqveuwzbobyabsmxugcumybjynpskqrlt") (re.* re.allchar) (str.to_re "ufjweiif") (re.* re.allchar) (str.to_re "amyqxsyceeyidmevtvnowkic") (re.* re.allchar) (str.to_re "ybduuojqhefq") re.allchar (str.to_re "nlkxihkasraobyvb") (re.* re.allchar) (str.to_re "mb") (re.* re.allchar) (str.to_re "jtwrbphqi") (re.* re.allchar) (str.to_re "wrhvwx") re.allchar (str.to_re "ldrccvyjxoapljvjbdenkg") (re.* re.allchar) (str.to_re "zuezbwndhv") re.allchar (str.to_re "zsdjwtguwjufuxkzjuhtraypgbutiayotknxtxwedqedvrw") re.allchar (str.to_re "btpym") re.allchar (str.to_re "cfzwokfmbfpvtgqd") (re.* re.allchar) (str.to_re "oopkdjgtzezutlndddtqeundjkeeonpcatfyvpdwykqniixrluwpdhdtakcpekgd") (re.* re.allchar) (re.* re.allchar) (str.to_re "vhspqqxpmu") re.allchar (str.to_re "ukdggsqwiwmyndoqkgmnholfjwwrfxthuwik") (re.* re.allchar) (str.to_re "vshyiddbhsrnhnmzkchk") re.allchar (str.to_re "pmfgiwxw") re.allchar (str.to_re "bam") (re.* re.allchar) (str.to_re "ueyvsxlstllphfllbggalm") re.allchar re.allchar (str.to_re "aon") (re.* re.allchar) (str.to_re "ngbuwrssjg") (re.* re.allchar) (str.to_re "jyjiuv") re.allchar re.allchar (str.to_re "dwxeknshevuuagli") re.allchar (str.to_re "o") re.allchar (str.to_re "spcioaonfhcpvcvyg") re.allchar (str.to_re "fsedqholiaqpdvjxjif") re.allchar (str.to_re "k") re.allchar (re.* re.allchar) (str.to_re "qtcm") (re.* re.allchar) re.allchar re.allchar (str.to_re "mawnjekzmemjazkfrmomkwrfqlbhlxeb") re.allchar (str.to_re "rmzdhzpwfv") re.allchar (str.to_re "hm") re.allchar (re.* re.allchar) (str.to_re "kqwjtm") (re.* re.allchar) (str.to_re "q") (re.* re.allchar) (str.to_re "aohug") (re.* re.allchar) (str.to_re "t") (re.* re.allchar) (str.to_re "gwqaxrtyxtls") (re.* re.allchar) (str.to_re "olddie") re.allchar (str.to_re "cvq") re.allchar (str.to_re "nflbapirzmmjicakwdrmfjoruktvj") re.allchar (str.to_re "fihpfgzve") (re.* re.allchar) (str.to_re "zz") re.allchar (str.to_re "y") (re.* re.allchar) (str.to_re "ggtdneycahypcg") (re.* re.allchar) (str.to_re "cttqxgi") (re.* re.allchar) (str.to_re "eza") (re.* re.allchar) (str.to_re "pbdrgklmcjau") re.allchar (str.to_re "guwksknriqpgpu") re.allchar (re.* re.allchar) (str.to_re "awskfgfe") (re.* re.allchar) (re.* re.allchar) (str.to_re "yrlsqaoexvdoajstlbwxkoslilsuciogehfhqmxzlvxlmrqgzj") re.allchar (str.to_re "mgmy") (re.* re.allchar) (str.to_re "anvrlcvxtpgglxsmjggyblusxxmm") re.allchar (str.to_re "ooldqyhwzzq") (re.* re.allchar) (str.to_re "qfxmufke") re.allchar (str.to_re "xnjevsxuphaeeuaxkve") (re.* re.allchar) (str.to_re "tprzieyflwrjkwvwbvptgvw") re.allchar (str.to_re "cialin") (re.* re.allchar) (str.to_re "fjs") re.allchar (re.* re.allchar) (str.to_re "jfaqgnewlfhcfqcjdczpaazrpvzhjqbrnqsxgkwjukyhcpkukhrqpgbew") (re.* re.allchar) (str.to_re "dlulilkuqvgdisvtkpdvkmqgqwwbkgrhrdbetsjxndztxxjc") (re.* re.allchar) (str.to_re "baflfofn") (re.* re.allchar) (str.to_re "fbx") re.allchar (str.to_re "xiqldxm") (re.* re.allchar) (str.to_re "rqerumqxsiq") re.allchar (str.to_re "zccgdeibvtlxcc") re.allchar (str.to_re "fjysymkvk") (re.* re.allchar) (str.to_re "dsgrixrfieflguj") re.allchar (str.to_re "qj") (re.* re.allchar) (str.to_re "syoiqnnzram") re.allchar (str.to_re "dkfzm") re.allchar (str.to_re "fagpfkfydetoijtaiyzbemxkltfxuurrb") re.allchar (re.* re.allchar) (str.to_re "x") (re.* re.allchar) (str.to_re "lfqpkvkn") (re.* re.allchar) (str.to_re "fuzeplcenddia") (re.* re.allchar) (str.to_re "vvorcjdyptn") (re.* re.allchar) (str.to_re "urtmucljyysbidrboemahtoujzumw") re.allchar (str.to_re "unqwddqapynkakhrl") re.allchar (str.to_re "psvyovmd") (re.* re.allchar) (str.to_re "mqjqjefa") re.allchar (str.to_re "dsexfjjy") (re.* re.allchar) (str.to_re "weelsmsawr") (re.* re.allchar) re.allchar (str.to_re "s") re.allchar (str.to_re "rasdroe") (re.* re.allchar) (str.to_re "ckchrxyxiy") re.allchar (str.to_re "nlt") re.allchar (str.to_re "v") re.allchar (str.to_re "ngscaqyul") (re.* re.allchar) (str.to_re "dj") (re.* re.allchar) (str.to_re "bmiswnpis") (re.* re.allchar) (str.to_re "hku") (re.* re.allchar) (str.to_re "mohkqgkc") re.allchar (str.to_re "lqcbsqqgiwajufznwrnbrfuaecpfjji") (re.* re.allchar) re.allchar (str.to_re "vwvynizagfaavrgm") (re.* re.allchar) (str.to_re "yxnqlhofm") re.allchar (str.to_re "xgcxmfll") re.allchar (str.to_re "evrw") re.allchar (str.to_re "ddzrfjt") (re.* re.allchar) (str.to_re "adzgenq") re.allchar (str.to_re "r") (re.* re.allchar) (str.to_re "hv") re.allchar (str.to_re "otlseldsdjwkfjx") (re.* re.allchar) (str.to_re "t") re.allchar (re.* re.allchar) (str.to_re "uaqyuhuuoaspwvinlzpmldwbzbqzxworqzb") re.allchar (str.to_re "k") re.allchar (str.to_re "qgfupans") re.allchar (str.to_re "dkjrpjzqx") (re.* re.allchar) (str.to_re "gwnxjue") (re.* re.allchar) (str.to_re "jvq") (re.* re.allchar) (str.to_re "dpqccdrzsxjnpiutmlid") (re.* re.allchar) (str.to_re "vfeqghrxhruupaqzafjaziosts") re.allchar (str.to_re "mlnirrkfbd") (re.* re.allchar) (str.to_re "xrbbopuluhi") (re.* re.allchar) (str.to_re "auntwswywjvlxonfrpmykbhin") re.allchar (str.to_re "atzhkhqa") re.allchar (str.to_re "ysn") re.allchar (str.to_re "op") (re.* re.allchar) (str.to_re "xbqzfofyslcxjetadlesjnklipweqzwx") re.allchar (str.to_re "aipqrsuzpqi") (re.* re.allchar) re.allchar (str.to_re "rlzkuptydkqpkqszyucjcgqed") (re.* re.allchar) (str.to_re "tojtwd") (re.* re.allchar) (str.to_re "hyehxubcxklrmwyqvtqlwmknqzgkatgysztctk") re.allchar (str.to_re "rjgslipaa") re.allchar (str.to_re "ebubttfzke") (re.* re.allchar) (str.to_re "vxomheqiy") re.allchar (str.to_re "m") (re.* re.allchar) (str.to_re "wqxeaciykayrlxrbyjxatitib") re.allchar (str.to_re "mwqokkmufstvfsklbqdpmt") (re.* re.allchar) (str.to_re "ynncrdvyt") (re.* re.allchar) (str.to_re "dokkcqzktkbchl") (re.* re.allchar) (str.to_re "czmaqkzuylruhtmzxpnjjjfxixpiqcifzohuwdoqrogkbxlepid") (re.* re.allchar) (str.to_re "nogtgiwe") (re.* re.allchar) (str.to_re "gskdttbzmfcvqolhthyd") re.allchar (str.to_re "eyomcbdnzi") re.allchar (str.to_re "pteppcywdpuwfz") (re.* re.allchar) (str.to_re "glcdhpj") (re.* re.allchar) (re.* re.allchar) (str.to_re "vm") (re.* re.allchar) (str.to_re "pquuajaglidiystckwemynfartorylszmvfnlmcbsvpefr") re.allchar (str.to_re "zlyogexhqrfliznnzdfdyzxjfmepzvylz") (re.* re.allchar) (str.to_re "pduwbl") (re.* re.allchar) (str.to_re "zschgvi") (re.* re.allchar) (str.to_re "hd") re.allchar (str.to_re "ehodavuvkidmzrz") (re.* re.allchar) (str.to_re "s") re.allchar (str.to_re "rgxupgfddhihdawxvhwxxlqnyrbxcpizfegzirke") re.allchar (str.to_re "cgyubllj") (re.* re.allchar) (str.to_re "jrsvw") re.allchar (str.to_re "wclvkdrquyljavqgnpetuyj") (re.* re.allchar) (re.* re.allchar) (str.to_re "hdcklwkvqap") re.allchar (str.to_re "bil") (re.* re.allchar) (str.to_re "reirmh") re.allchar (str.to_re "uslwtpplugxjkyobqsjqnrf") (re.* re.allchar) (str.to_re "ecxnzesyvozzjmgmwp") re.allchar (str.to_re "ftvvbyqojixezdt") re.allchar (str.to_re "eqvvdrtkatrcapogdc") (re.* re.allchar) (str.to_re "ygjlgtiqkhxopxabxzsbju") (re.* re.allchar) (str.to_re "bcksln") (re.* re.allchar) (str.to_re "bseydjnnlhv") (re.* re.allchar) (str.to_re "jyljcjn") re.allchar (str.to_re "tvejrvwbcxdpgkrlmnddj") (re.* re.allchar) (str.to_re "gjemuilnrkdglsfgctwsqtv") (re.* re.allchar) (str.to_re "mvwiscvzxeexcppdrg") (re.* re.allchar) (str.to_re "zcyyesvnabztgldbvlfqoooyvjofakocihukrkmfzmijhkr") re.allchar (str.to_re "a") (re.* re.allchar) (str.to_re "cdmuilimg") re.allchar (str.to_re "lckcm") re.allchar (str.to_re "gy") (re.* re.allchar) (str.to_re "skear") re.allchar (str.to_re "shngcjtkblfbypthzflgnarud") re.allchar (str.to_re "onjeolhjo") (re.* re.allchar) (str.to_re "drdnmfvagmb") re.allchar (str.to_re "qrcbsbzmtstibz") )  )))
(check-sat)
(exit)
